30 60
28
5 7 25 21
5 14 25 46
8 14 22 0
8 4 22 14
13 21 7 39
11 7 14 32
11 14 14 18
5 14 7 25
5 4 7 21
3 18 14 0
3 21 0 0
11 17 3 0
11 4 3 17
4 7 3 32
4 5 3 27
7 6 0 21
5 18 17 0
5 3 25 18
3 7 0 53
3 5 0 48
4 18 3 39
4 3 3 57
2 12 12 21
2 6 12 33
5 18 25 28
5 21 20 39
3 17 0 31
3 4 0 27
----------
==========
